p cnf 294 1996
1 2 3 4 5 6 0
-1 -2 0
-1 -3 0
-1 -4 0
-1 -5 0
-1 -6 0
-2 -3 0
-2 -4 0
-2 -5 0
-2 -6 0
-3 -4 0
-3 -5 0
-3 -6 0
-4 -5 0
-4 -6 0
-5 -6 0
-1 43 0
-1 7 0
-2 44 0
-2 8 0
-3 45 0
-3 9 0
-4 46 0
-4 10 0
-5 47 0
-5 11 0
-6 48 0
-6 12 0
7 8 9 10 11 12 0
-7 -8 0
-7 -9 0
-7 -10 0
-7 -11 0
-7 -12 0
-8 -9 0
-8 -10 0
-8 -11 0
-8 -12 0
-9 -10 0
-9 -11 0
-9 -12 0
-10 -11 0
-10 -12 0
-11 -12 0
-7 49 1 0
-7 49 13 0
-7 1 13 0
-8 50 2 0
-8 50 14 0
-8 2 14 0
-9 51 3 0
-9 51 15 0
-9 3 15 0
-10 52 4 0
-10 52 16 0
-10 4 16 0
-11 53 5 0
-11 53 17 0
-11 5 17 0
-12 54 6 0
-12 54 18 0
-12 6 18 0
-7 -49 -1 -13 0
-8 -50 -2 -14 0
-9 -51 -3 -15 0
-10 -52 -4 -16 0
-11 -53 -5 -17 0
-12 -54 -6 -18 0
13 14 15 16 17 18 0
-13 -14 0
-13 -15 0
-13 -16 0
-13 -17 0
-13 -18 0
-14 -15 0
-14 -16 0
-14 -17 0
-14 -18 0
-15 -16 0
-15 -17 0
-15 -18 0
-16 -17 0
-16 -18 0
-17 -18 0
-13 55 7 0
-13 55 19 0
-13 7 19 0
-14 56 8 0
-14 56 20 0
-14 8 20 0
-15 57 9 0
-15 57 21 0
-15 9 21 0
-16 58 10 0
-16 58 22 0
-16 10 22 0
-17 59 11 0
-17 59 23 0
-17 11 23 0
-18 60 12 0
-18 60 24 0
-18 12 24 0
-13 -55 -7 -19 0
-14 -56 -8 -20 0
-15 -57 -9 -21 0
-16 -58 -10 -22 0
-17 -59 -11 -23 0
-18 -60 -12 -24 0
19 20 21 22 23 24 0
-19 -20 0
-19 -21 0
-19 -22 0
-19 -23 0
-19 -24 0
-20 -21 0
-20 -22 0
-20 -23 0
-20 -24 0
-21 -22 0
-21 -23 0
-21 -24 0
-22 -23 0
-22 -24 0
-23 -24 0
-19 61 13 0
-19 61 25 0
-19 13 25 0
-20 62 14 0
-20 62 26 0
-20 14 26 0
-21 63 15 0
-21 63 27 0
-21 15 27 0
-22 64 16 0
-22 64 28 0
-22 16 28 0
-23 65 17 0
-23 65 29 0
-23 17 29 0
-24 66 18 0
-24 66 30 0
-24 18 30 0
-19 -61 -13 -25 0
-20 -62 -14 -26 0
-21 -63 -15 -27 0
-22 -64 -16 -28 0
-23 -65 -17 -29 0
-24 -66 -18 -30 0
25 26 27 28 29 30 0
-25 -26 0
-25 -27 0
-25 -28 0
-25 -29 0
-25 -30 0
-26 -27 0
-26 -28 0
-26 -29 0
-26 -30 0
-27 -28 0
-27 -29 0
-27 -30 0
-28 -29 0
-28 -30 0
-29 -30 0
-25 67 19 0
-25 67 31 0
-25 19 31 0
-26 68 20 0
-26 68 32 0
-26 20 32 0
-27 69 21 0
-27 69 33 0
-27 21 33 0
-28 70 22 0
-28 70 34 0
-28 22 34 0
-29 71 23 0
-29 71 35 0
-29 23 35 0
-30 72 24 0
-30 72 36 0
-30 24 36 0
-25 -67 -19 -31 0
-26 -68 -20 -32 0
-27 -69 -21 -33 0
-28 -70 -22 -34 0
-29 -71 -23 -35 0
-30 -72 -24 -36 0
31 32 33 34 35 36 0
-31 -32 0
-31 -33 0
-31 -34 0
-31 -35 0
-31 -36 0
-32 -33 0
-32 -34 0
-32 -35 0
-32 -36 0
-33 -34 0
-33 -35 0
-33 -36 0
-34 -35 0
-34 -36 0
-35 -36 0
-31 73 25 0
-31 73 37 0
-31 25 37 0
-32 74 26 0
-32 74 38 0
-32 26 38 0
-33 75 27 0
-33 75 39 0
-33 27 39 0
-34 76 28 0
-34 76 40 0
-34 28 40 0
-35 77 29 0
-35 77 41 0
-35 29 41 0
-36 78 30 0
-36 78 42 0
-36 30 42 0
-31 -73 -25 -37 0
-32 -74 -26 -38 0
-33 -75 -27 -39 0
-34 -76 -28 -40 0
-35 -77 -29 -41 0
-36 -78 -30 -42 0
37 38 39 40 41 42 0
-37 -38 0
-37 -39 0
-37 -40 0
-37 -41 0
-37 -42 0
-38 -39 0
-38 -40 0
-38 -41 0
-38 -42 0
-39 -40 0
-39 -41 0
-39 -42 0
-40 -41 0
-40 -42 0
-41 -42 0
-37 79 0
-37 31 0
-38 80 0
-38 32 0
-39 81 0
-39 33 0
-40 82 0
-40 34 0
-41 83 0
-41 35 0
-42 84 0
-42 36 0
43 44 45 46 47 48 0
-43 -44 0
-43 -45 0
-43 -46 0
-43 -47 0
-43 -48 0
-44 -45 0
-44 -46 0
-44 -47 0
-44 -48 0
-45 -46 0
-45 -47 0
-45 -48 0
-46 -47 0
-46 -48 0
-47 -48 0
-43 85 1 0
-43 85 49 0
-43 1 49 0
-44 86 2 0
-44 86 50 0
-44 2 50 0
-45 87 3 0
-45 87 51 0
-45 3 51 0
-46 88 4 0
-46 88 52 0
-46 4 52 0
-47 89 5 0
-47 89 53 0
-47 5 53 0
-48 90 6 0
-48 90 54 0
-48 6 54 0
-43 -85 -1 -49 0
-44 -86 -2 -50 0
-45 -87 -3 -51 0
-46 -88 -4 -52 0
-47 -89 -5 -53 0
-48 -90 -6 -54 0
49 50 51 52 53 54 0
-49 -50 0
-49 -51 0
-49 -52 0
-49 -53 0
-49 -54 0
-50 -51 0
-50 -52 0
-50 -53 0
-50 -54 0
-51 -52 0
-51 -53 0
-51 -54 0
-52 -53 0
-52 -54 0
-53 -54 0
-49 91 7 55 0
-49 91 7 43 0
-49 91 55 43 0
-49 7 55 43 0
-50 92 8 56 0
-50 92 8 44 0
-50 92 56 44 0
-50 8 56 44 0
-51 93 9 57 0
-51 93 9 45 0
-51 93 57 45 0
-51 9 57 45 0
-52 94 10 58 0
-52 94 10 46 0
-52 94 58 46 0
-52 10 58 46 0
-53 95 11 59 0
-53 95 11 47 0
-53 95 59 47 0
-53 11 59 47 0
-54 96 12 60 0
-54 96 12 48 0
-54 96 60 48 0
-54 12 60 48 0
-49 -91 -7 -55 0
-49 -91 -7 -43 0
-49 -91 -55 -43 0
-49 -7 -55 -43 0
-50 -92 -8 -56 0
-50 -92 -8 -44 0
-50 -92 -56 -44 0
-50 -8 -56 -44 0
-51 -93 -9 -57 0
-51 -93 -9 -45 0
-51 -93 -57 -45 0
-51 -9 -57 -45 0
-52 -94 -10 -58 0
-52 -94 -10 -46 0
-52 -94 -58 -46 0
-52 -10 -58 -46 0
-53 -95 -11 -59 0
-53 -95 -11 -47 0
-53 -95 -59 -47 0
-53 -11 -59 -47 0
-54 -96 -12 -60 0
-54 -96 -12 -48 0
-54 -96 -60 -48 0
-54 -12 -60 -48 0
55 56 57 58 59 60 0
-55 -56 0
-55 -57 0
-55 -58 0
-55 -59 0
-55 -60 0
-56 -57 0
-56 -58 0
-56 -59 0
-56 -60 0
-57 -58 0
-57 -59 0
-57 -60 0
-58 -59 0
-58 -60 0
-59 -60 0
-55 97 13 61 0
-55 97 13 49 0
-55 97 61 49 0
-55 13 61 49 0
-56 98 14 62 0
-56 98 14 50 0
-56 98 62 50 0
-56 14 62 50 0
-57 99 15 63 0
-57 99 15 51 0
-57 99 63 51 0
-57 15 63 51 0
-58 100 16 64 0
-58 100 16 52 0
-58 100 64 52 0
-58 16 64 52 0
-59 101 17 65 0
-59 101 17 53 0
-59 101 65 53 0
-59 17 65 53 0
-60 102 18 66 0
-60 102 18 54 0
-60 102 66 54 0
-60 18 66 54 0
-55 -97 -13 -61 0
-55 -97 -13 -49 0
-55 -97 -61 -49 0
-55 -13 -61 -49 0
-56 -98 -14 -62 0
-56 -98 -14 -50 0
-56 -98 -62 -50 0
-56 -14 -62 -50 0
-57 -99 -15 -63 0
-57 -99 -15 -51 0
-57 -99 -63 -51 0
-57 -15 -63 -51 0
-58 -100 -16 -64 0
-58 -100 -16 -52 0
-58 -100 -64 -52 0
-58 -16 -64 -52 0
-59 -101 -17 -65 0
-59 -101 -17 -53 0
-59 -101 -65 -53 0
-59 -17 -65 -53 0
-60 -102 -18 -66 0
-60 -102 -18 -54 0
-60 -102 -66 -54 0
-60 -18 -66 -54 0
61 62 63 64 65 66 0
-61 -62 0
-61 -63 0
-61 -64 0
-61 -65 0
-61 -66 0
-62 -63 0
-62 -64 0
-62 -65 0
-62 -66 0
-63 -64 0
-63 -65 0
-63 -66 0
-64 -65 0
-64 -66 0
-65 -66 0
-61 103 19 67 0
-61 103 19 55 0
-61 103 67 55 0
-61 19 67 55 0
-62 104 20 68 0
-62 104 20 56 0
-62 104 68 56 0
-62 20 68 56 0
-63 105 21 69 0
-63 105 21 57 0
-63 105 69 57 0
-63 21 69 57 0
-64 106 22 70 0
-64 106 22 58 0
-64 106 70 58 0
-64 22 70 58 0
-65 107 23 71 0
-65 107 23 59 0
-65 107 71 59 0
-65 23 71 59 0
-66 108 24 72 0
-66 108 24 60 0
-66 108 72 60 0
-66 24 72 60 0
-61 -103 -19 -67 0
-61 -103 -19 -55 0
-61 -103 -67 -55 0
-61 -19 -67 -55 0
-62 -104 -20 -68 0
-62 -104 -20 -56 0
-62 -104 -68 -56 0
-62 -20 -68 -56 0
-63 -105 -21 -69 0
-63 -105 -21 -57 0
-63 -105 -69 -57 0
-63 -21 -69 -57 0
-64 -106 -22 -70 0
-64 -106 -22 -58 0
-64 -106 -70 -58 0
-64 -22 -70 -58 0
-65 -107 -23 -71 0
-65 -107 -23 -59 0
-65 -107 -71 -59 0
-65 -23 -71 -59 0
-66 -108 -24 -72 0
-66 -108 -24 -60 0
-66 -108 -72 -60 0
-66 -24 -72 -60 0
67 68 69 70 71 72 0
-67 -68 0
-67 -69 0
-67 -70 0
-67 -71 0
-67 -72 0
-68 -69 0
-68 -70 0
-68 -71 0
-68 -72 0
-69 -70 0
-69 -71 0
-69 -72 0
-70 -71 0
-70 -72 0
-71 -72 0
-67 109 25 73 0
-67 109 25 61 0
-67 109 73 61 0
-67 25 73 61 0
-68 110 26 74 0
-68 110 26 62 0
-68 110 74 62 0
-68 26 74 62 0
-69 111 27 75 0
-69 111 27 63 0
-69 111 75 63 0
-69 27 75 63 0
-70 112 28 76 0
-70 112 28 64 0
-70 112 76 64 0
-70 28 76 64 0
-71 113 29 77 0
-71 113 29 65 0
-71 113 77 65 0
-71 29 77 65 0
-72 114 30 78 0
-72 114 30 66 0
-72 114 78 66 0
-72 30 78 66 0
-67 -109 -25 -73 0
-67 -109 -25 -61 0
-67 -109 -73 -61 0
-67 -25 -73 -61 0
-68 -110 -26 -74 0
-68 -110 -26 -62 0
-68 -110 -74 -62 0
-68 -26 -74 -62 0
-69 -111 -27 -75 0
-69 -111 -27 -63 0
-69 -111 -75 -63 0
-69 -27 -75 -63 0
-70 -112 -28 -76 0
-70 -112 -28 -64 0
-70 -112 -76 -64 0
-70 -28 -76 -64 0
-71 -113 -29 -77 0
-71 -113 -29 -65 0
-71 -113 -77 -65 0
-71 -29 -77 -65 0
-72 -114 -30 -78 0
-72 -114 -30 -66 0
-72 -114 -78 -66 0
-72 -30 -78 -66 0
73 74 75 76 77 78 0
-73 -74 0
-73 -75 0
-73 -76 0
-73 -77 0
-73 -78 0
-74 -75 0
-74 -76 0
-74 -77 0
-74 -78 0
-75 -76 0
-75 -77 0
-75 -78 0
-76 -77 0
-76 -78 0
-77 -78 0
-73 115 31 79 0
-73 115 31 67 0
-73 115 79 67 0
-73 31 79 67 0
-74 116 32 80 0
-74 116 32 68 0
-74 116 80 68 0
-74 32 80 68 0
-75 117 33 81 0
-75 117 33 69 0
-75 117 81 69 0
-75 33 81 69 0
-76 118 34 82 0
-76 118 34 70 0
-76 118 82 70 0
-76 34 82 70 0
-77 119 35 83 0
-77 119 35 71 0
-77 119 83 71 0
-77 35 83 71 0
-78 120 36 84 0
-78 120 36 72 0
-78 120 84 72 0
-78 36 84 72 0
-73 -115 -31 -79 0
-73 -115 -31 -67 0
-73 -115 -79 -67 0
-73 -31 -79 -67 0
-74 -116 -32 -80 0
-74 -116 -32 -68 0
-74 -116 -80 -68 0
-74 -32 -80 -68 0
-75 -117 -33 -81 0
-75 -117 -33 -69 0
-75 -117 -81 -69 0
-75 -33 -81 -69 0
-76 -118 -34 -82 0
-76 -118 -34 -70 0
-76 -118 -82 -70 0
-76 -34 -82 -70 0
-77 -119 -35 -83 0
-77 -119 -35 -71 0
-77 -119 -83 -71 0
-77 -35 -83 -71 0
-78 -120 -36 -84 0
-78 -120 -36 -72 0
-78 -120 -84 -72 0
-78 -36 -84 -72 0
79 80 81 82 83 84 0
-79 -80 0
-79 -81 0
-79 -82 0
-79 -83 0
-79 -84 0
-80 -81 0
-80 -82 0
-80 -83 0
-80 -84 0
-81 -82 0
-81 -83 0
-81 -84 0
-82 -83 0
-82 -84 0
-83 -84 0
-79 121 37 0
-79 121 73 0
-79 37 73 0
-80 122 38 0
-80 122 74 0
-80 38 74 0
-81 123 39 0
-81 123 75 0
-81 39 75 0
-82 124 40 0
-82 124 76 0
-82 40 76 0
-83 125 41 0
-83 125 77 0
-83 41 77 0
-84 126 42 0
-84 126 78 0
-84 42 78 0
-79 -121 -37 -73 0
-80 -122 -38 -74 0
-81 -123 -39 -75 0
-82 -124 -40 -76 0
-83 -125 -41 -77 0
-84 -126 -42 -78 0
85 86 87 88 89 90 0
-85 -86 0
-85 -87 0
-85 -88 0
-85 -89 0
-85 -90 0
-86 -87 0
-86 -88 0
-86 -89 0
-86 -90 0
-87 -88 0
-87 -89 0
-87 -90 0
-88 -89 0
-88 -90 0
-89 -90 0
-85 127 43 0
-85 127 91 0
-85 43 91 0
-86 128 44 0
-86 128 92 0
-86 44 92 0
-87 129 45 0
-87 129 93 0
-87 45 93 0
-88 130 46 0
-88 130 94 0
-88 46 94 0
-89 131 47 0
-89 131 95 0
-89 47 95 0
-90 132 48 0
-90 132 96 0
-90 48 96 0
-85 -127 -43 -91 0
-86 -128 -44 -92 0
-87 -129 -45 -93 0
-88 -130 -46 -94 0
-89 -131 -47 -95 0
-90 -132 -48 -96 0
91 92 93 94 95 96 0
-91 -92 0
-91 -93 0
-91 -94 0
-91 -95 0
-91 -96 0
-92 -93 0
-92 -94 0
-92 -95 0
-92 -96 0
-93 -94 0
-93 -95 0
-93 -96 0
-94 -95 0
-94 -96 0
-95 -96 0
-91 133 49 97 0
-91 133 49 85 0
-91 133 97 85 0
-91 49 97 85 0
-92 134 50 98 0
-92 134 50 86 0
-92 134 98 86 0
-92 50 98 86 0
-93 135 51 99 0
-93 135 51 87 0
-93 135 99 87 0
-93 51 99 87 0
-94 136 52 100 0
-94 136 52 88 0
-94 136 100 88 0
-94 52 100 88 0
-95 137 53 101 0
-95 137 53 89 0
-95 137 101 89 0
-95 53 101 89 0
-96 138 54 102 0
-96 138 54 90 0
-96 138 102 90 0
-96 54 102 90 0
-91 -133 -49 -97 0
-91 -133 -49 -85 0
-91 -133 -97 -85 0
-91 -49 -97 -85 0
-92 -134 -50 -98 0
-92 -134 -50 -86 0
-92 -134 -98 -86 0
-92 -50 -98 -86 0
-93 -135 -51 -99 0
-93 -135 -51 -87 0
-93 -135 -99 -87 0
-93 -51 -99 -87 0
-94 -136 -52 -100 0
-94 -136 -52 -88 0
-94 -136 -100 -88 0
-94 -52 -100 -88 0
-95 -137 -53 -101 0
-95 -137 -53 -89 0
-95 -137 -101 -89 0
-95 -53 -101 -89 0
-96 -138 -54 -102 0
-96 -138 -54 -90 0
-96 -138 -102 -90 0
-96 -54 -102 -90 0
97 98 99 100 101 102 0
-97 -98 0
-97 -99 0
-97 -100 0
-97 -101 0
-97 -102 0
-98 -99 0
-98 -100 0
-98 -101 0
-98 -102 0
-99 -100 0
-99 -101 0
-99 -102 0
-100 -101 0
-100 -102 0
-101 -102 0
-97 139 55 103 0
-97 139 55 91 0
-97 139 103 91 0
-97 55 103 91 0
-98 140 56 104 0
-98 140 56 92 0
-98 140 104 92 0
-98 56 104 92 0
-99 141 57 105 0
-99 141 57 93 0
-99 141 105 93 0
-99 57 105 93 0
-100 142 58 106 0
-100 142 58 94 0
-100 142 106 94 0
-100 58 106 94 0
-101 143 59 107 0
-101 143 59 95 0
-101 143 107 95 0
-101 59 107 95 0
-102 144 60 108 0
-102 144 60 96 0
-102 144 108 96 0
-102 60 108 96 0
-97 -139 -55 -103 0
-97 -139 -55 -91 0
-97 -139 -103 -91 0
-97 -55 -103 -91 0
-98 -140 -56 -104 0
-98 -140 -56 -92 0
-98 -140 -104 -92 0
-98 -56 -104 -92 0
-99 -141 -57 -105 0
-99 -141 -57 -93 0
-99 -141 -105 -93 0
-99 -57 -105 -93 0
-100 -142 -58 -106 0
-100 -142 -58 -94 0
-100 -142 -106 -94 0
-100 -58 -106 -94 0
-101 -143 -59 -107 0
-101 -143 -59 -95 0
-101 -143 -107 -95 0
-101 -59 -107 -95 0
-102 -144 -60 -108 0
-102 -144 -60 -96 0
-102 -144 -108 -96 0
-102 -60 -108 -96 0
103 104 105 106 107 108 0
-103 -104 0
-103 -105 0
-103 -106 0
-103 -107 0
-103 -108 0
-104 -105 0
-104 -106 0
-104 -107 0
-104 -108 0
-105 -106 0
-105 -107 0
-105 -108 0
-106 -107 0
-106 -108 0
-107 -108 0
-103 145 61 109 0
-103 145 61 97 0
-103 145 109 97 0
-103 61 109 97 0
-104 146 62 110 0
-104 146 62 98 0
-104 146 110 98 0
-104 62 110 98 0
-105 147 63 111 0
-105 147 63 99 0
-105 147 111 99 0
-105 63 111 99 0
-106 148 64 112 0
-106 148 64 100 0
-106 148 112 100 0
-106 64 112 100 0
-107 149 65 113 0
-107 149 65 101 0
-107 149 113 101 0
-107 65 113 101 0
-108 150 66 114 0
-108 150 66 102 0
-108 150 114 102 0
-108 66 114 102 0
-103 -145 -61 -109 0
-103 -145 -61 -97 0
-103 -145 -109 -97 0
-103 -61 -109 -97 0
-104 -146 -62 -110 0
-104 -146 -62 -98 0
-104 -146 -110 -98 0
-104 -62 -110 -98 0
-105 -147 -63 -111 0
-105 -147 -63 -99 0
-105 -147 -111 -99 0
-105 -63 -111 -99 0
-106 -148 -64 -112 0
-106 -148 -64 -100 0
-106 -148 -112 -100 0
-106 -64 -112 -100 0
-107 -149 -65 -113 0
-107 -149 -65 -101 0
-107 -149 -113 -101 0
-107 -65 -113 -101 0
-108 -150 -66 -114 0
-108 -150 -66 -102 0
-108 -150 -114 -102 0
-108 -66 -114 -102 0
110 0
-109 0
-111 0
-112 0
-113 0
-114 0
152 68 116 104 0
-152 -68 0
-152 -116 0
-152 -104 0
-68 -116 0
-68 -104 0
-116 -104 0
117 0
-115 0
-116 0
-118 0
-119 0
-120 0
159 75 123 111 0
-159 -75 0
-159 -123 0
-159 -111 0
-75 -123 0
-75 -111 0
-123 -111 0
121 122 123 124 125 126 0
-121 -122 0
-121 -123 0
-121 -124 0
-121 -125 0
-121 -126 0
-122 -123 0
-122 -124 0
-122 -125 0
-122 -126 0
-123 -124 0
-123 -125 0
-123 -126 0
-124 -125 0
-124 -126 0
-125 -126 0
-121 163 79 0
-121 163 115 0
-121 79 115 0
-122 164 80 0
-122 164 116 0
-122 80 116 0
-123 165 81 0
-123 165 117 0
-123 81 117 0
-124 166 82 0
-124 166 118 0
-124 82 118 0
-125 167 83 0
-125 167 119 0
-125 83 119 0
-126 168 84 0
-126 168 120 0
-126 84 120 0
-121 -163 -79 -115 0
-122 -164 -80 -116 0
-123 -165 -81 -117 0
-124 -166 -82 -118 0
-125 -167 -83 -119 0
-126 -168 -84 -120 0
127 128 129 130 131 132 0
-127 -128 0
-127 -129 0
-127 -130 0
-127 -131 0
-127 -132 0
-128 -129 0
-128 -130 0
-128 -131 0
-128 -132 0
-129 -130 0
-129 -131 0
-129 -132 0
-130 -131 0
-130 -132 0
-131 -132 0
-127 169 85 0
-127 169 133 0
-127 85 133 0
-128 170 86 0
-128 170 134 0
-128 86 134 0
-129 171 87 0
-129 171 135 0
-129 87 135 0
-130 172 88 0
-130 172 136 0
-130 88 136 0
-131 173 89 0
-131 173 137 0
-131 89 137 0
-132 174 90 0
-132 174 138 0
-132 90 138 0
-127 -169 -85 -133 0
-128 -170 -86 -134 0
-129 -171 -87 -135 0
-130 -172 -88 -136 0
-131 -173 -89 -137 0
-132 -174 -90 -138 0
133 134 135 136 137 138 0
-133 -134 0
-133 -135 0
-133 -136 0
-133 -137 0
-133 -138 0
-134 -135 0
-134 -136 0
-134 -137 0
-134 -138 0
-135 -136 0
-135 -137 0
-135 -138 0
-136 -137 0
-136 -138 0
-137 -138 0
-133 175 91 139 0
-133 175 91 127 0
-133 175 139 127 0
-133 91 139 127 0
-134 176 92 140 0
-134 176 92 128 0
-134 176 140 128 0
-134 92 140 128 0
-135 177 93 141 0
-135 177 93 129 0
-135 177 141 129 0
-135 93 141 129 0
-136 178 94 142 0
-136 178 94 130 0
-136 178 142 130 0
-136 94 142 130 0
-137 179 95 143 0
-137 179 95 131 0
-137 179 143 131 0
-137 95 143 131 0
-138 180 96 144 0
-138 180 96 132 0
-138 180 144 132 0
-138 96 144 132 0
-133 -175 -91 -139 0
-133 -175 -91 -127 0
-133 -175 -139 -127 0
-133 -91 -139 -127 0
-134 -176 -92 -140 0
-134 -176 -92 -128 0
-134 -176 -140 -128 0
-134 -92 -140 -128 0
-135 -177 -93 -141 0
-135 -177 -93 -129 0
-135 -177 -141 -129 0
-135 -93 -141 -129 0
-136 -178 -94 -142 0
-136 -178 -94 -130 0
-136 -178 -142 -130 0
-136 -94 -142 -130 0
-137 -179 -95 -143 0
-137 -179 -95 -131 0
-137 -179 -143 -131 0
-137 -95 -143 -131 0
-138 -180 -96 -144 0
-138 -180 -96 -132 0
-138 -180 -144 -132 0
-138 -96 -144 -132 0
139 140 141 142 143 144 0
-139 -140 0
-139 -141 0
-139 -142 0
-139 -143 0
-139 -144 0
-140 -141 0
-140 -142 0
-140 -143 0
-140 -144 0
-141 -142 0
-141 -143 0
-141 -144 0
-142 -143 0
-142 -144 0
-143 -144 0
-139 181 97 145 0
-139 181 97 133 0
-139 181 145 133 0
-139 97 145 133 0
-140 182 98 146 0
-140 182 98 134 0
-140 182 146 134 0
-140 98 146 134 0
-141 183 99 147 0
-141 183 99 135 0
-141 183 147 135 0
-141 99 147 135 0
-142 184 100 148 0
-142 184 100 136 0
-142 184 148 136 0
-142 100 148 136 0
-143 185 101 149 0
-143 185 101 137 0
-143 185 149 137 0
-143 101 149 137 0
-144 186 102 150 0
-144 186 102 138 0
-144 186 150 138 0
-144 102 150 138 0
-139 -181 -97 -145 0
-139 -181 -97 -133 0
-139 -181 -145 -133 0
-139 -97 -145 -133 0
-140 -182 -98 -146 0
-140 -182 -98 -134 0
-140 -182 -146 -134 0
-140 -98 -146 -134 0
-141 -183 -99 -147 0
-141 -183 -99 -135 0
-141 -183 -147 -135 0
-141 -99 -147 -135 0
-142 -184 -100 -148 0
-142 -184 -100 -136 0
-142 -184 -148 -136 0
-142 -100 -148 -136 0
-143 -185 -101 -149 0
-143 -185 -101 -137 0
-143 -185 -149 -137 0
-143 -101 -149 -137 0
-144 -186 -102 -150 0
-144 -186 -102 -138 0
-144 -186 -150 -138 0
-144 -102 -150 -138 0
145 146 147 148 149 150 0
-145 -146 0
-145 -147 0
-145 -148 0
-145 -149 0
-145 -150 0
-146 -147 0
-146 -148 0
-146 -149 0
-146 -150 0
-147 -148 0
-147 -149 0
-147 -150 0
-148 -149 0
-148 -150 0
-149 -150 0
-145 187 103 151 0
-145 187 103 139 0
-145 187 151 139 0
-145 103 151 139 0
-146 188 104 152 0
-146 188 104 140 0
-146 188 152 140 0
-146 104 152 140 0
-147 189 105 153 0
-147 189 105 141 0
-147 189 153 141 0
-147 105 153 141 0
-148 190 106 154 0
-148 190 106 142 0
-148 190 154 142 0
-148 106 154 142 0
-149 191 107 155 0
-149 191 107 143 0
-149 191 155 143 0
-149 107 155 143 0
-150 192 108 156 0
-150 192 108 144 0
-150 192 156 144 0
-150 108 156 144 0
-145 -187 -103 -151 0
-145 -187 -103 -139 0
-145 -187 -151 -139 0
-145 -103 -151 -139 0
-146 -188 -104 -152 0
-146 -188 -104 -140 0
-146 -188 -152 -140 0
-146 -104 -152 -140 0
-147 -189 -105 -153 0
-147 -189 -105 -141 0
-147 -189 -153 -141 0
-147 -105 -153 -141 0
-148 -190 -106 -154 0
-148 -190 -106 -142 0
-148 -190 -154 -142 0
-148 -106 -154 -142 0
-149 -191 -107 -155 0
-149 -191 -107 -143 0
-149 -191 -155 -143 0
-149 -107 -155 -143 0
-150 -192 -108 -156 0
-150 -192 -108 -144 0
-150 -192 -156 -144 0
-150 -108 -156 -144 0
156 0
-151 0
-152 0
-153 0
-154 0
-155 0
198 114 162 150 0
-198 -114 0
-198 -162 0
-198 -150 0
-114 -162 0
-114 -150 0
-162 -150 0
157 0
-158 0
-159 0
-160 0
-161 0
-162 0
199 115 163 151 0
-199 -115 0
-199 -163 0
-199 -151 0
-115 -163 0
-115 -151 0
-163 -151 0
163 164 165 166 167 168 0
-163 -164 0
-163 -165 0
-163 -166 0
-163 -167 0
-163 -168 0
-164 -165 0
-164 -166 0
-164 -167 0
-164 -168 0
-165 -166 0
-165 -167 0
-165 -168 0
-166 -167 0
-166 -168 0
-167 -168 0
-163 205 121 0
-163 205 157 0
-163 121 157 0
-164 206 122 0
-164 206 158 0
-164 122 158 0
-165 207 123 0
-165 207 159 0
-165 123 159 0
-166 208 124 0
-166 208 160 0
-166 124 160 0
-167 209 125 0
-167 209 161 0
-167 125 161 0
-168 210 126 0
-168 210 162 0
-168 126 162 0
-163 -205 -121 -157 0
-164 -206 -122 -158 0
-165 -207 -123 -159 0
-166 -208 -124 -160 0
-167 -209 -125 -161 0
-168 -210 -126 -162 0
169 170 171 172 173 174 0
-169 -170 0
-169 -171 0
-169 -172 0
-169 -173 0
-169 -174 0
-170 -171 0
-170 -172 0
-170 -173 0
-170 -174 0
-171 -172 0
-171 -173 0
-171 -174 0
-172 -173 0
-172 -174 0
-173 -174 0
-169 211 127 0
-169 211 175 0
-169 127 175 0
-170 212 128 0
-170 212 176 0
-170 128 176 0
-171 213 129 0
-171 213 177 0
-171 129 177 0
-172 214 130 0
-172 214 178 0
-172 130 178 0
-173 215 131 0
-173 215 179 0
-173 131 179 0
-174 216 132 0
-174 216 180 0
-174 132 180 0
-169 -211 -127 -175 0
-170 -212 -128 -176 0
-171 -213 -129 -177 0
-172 -214 -130 -178 0
-173 -215 -131 -179 0
-174 -216 -132 -180 0
175 176 177 178 179 180 0
-175 -176 0
-175 -177 0
-175 -178 0
-175 -179 0
-175 -180 0
-176 -177 0
-176 -178 0
-176 -179 0
-176 -180 0
-177 -178 0
-177 -179 0
-177 -180 0
-178 -179 0
-178 -180 0
-179 -180 0
-175 217 133 181 0
-175 217 133 169 0
-175 217 181 169 0
-175 133 181 169 0
-176 218 134 182 0
-176 218 134 170 0
-176 218 182 170 0
-176 134 182 170 0
-177 219 135 183 0
-177 219 135 171 0
-177 219 183 171 0
-177 135 183 171 0
-178 220 136 184 0
-178 220 136 172 0
-178 220 184 172 0
-178 136 184 172 0
-179 221 137 185 0
-179 221 137 173 0
-179 221 185 173 0
-179 137 185 173 0
-180 222 138 186 0
-180 222 138 174 0
-180 222 186 174 0
-180 138 186 174 0
-175 -217 -133 -181 0
-175 -217 -133 -169 0
-175 -217 -181 -169 0
-175 -133 -181 -169 0
-176 -218 -134 -182 0
-176 -218 -134 -170 0
-176 -218 -182 -170 0
-176 -134 -182 -170 0
-177 -219 -135 -183 0
-177 -219 -135 -171 0
-177 -219 -183 -171 0
-177 -135 -183 -171 0
-178 -220 -136 -184 0
-178 -220 -136 -172 0
-178 -220 -184 -172 0
-178 -136 -184 -172 0
-179 -221 -137 -185 0
-179 -221 -137 -173 0
-179 -221 -185 -173 0
-179 -137 -185 -173 0
-180 -222 -138 -186 0
-180 -222 -138 -174 0
-180 -222 -186 -174 0
-180 -138 -186 -174 0
181 182 183 184 185 186 0
-181 -182 0
-181 -183 0
-181 -184 0
-181 -185 0
-181 -186 0
-182 -183 0
-182 -184 0
-182 -185 0
-182 -186 0
-183 -184 0
-183 -185 0
-183 -186 0
-184 -185 0
-184 -186 0
-185 -186 0
-181 223 139 187 0
-181 223 139 175 0
-181 223 187 175 0
-181 139 187 175 0
-182 224 140 188 0
-182 224 140 176 0
-182 224 188 176 0
-182 140 188 176 0
-183 225 141 189 0
-183 225 141 177 0
-183 225 189 177 0
-183 141 189 177 0
-184 226 142 190 0
-184 226 142 178 0
-184 226 190 178 0
-184 142 190 178 0
-185 227 143 191 0
-185 227 143 179 0
-185 227 191 179 0
-185 143 191 179 0
-186 228 144 192 0
-186 228 144 180 0
-186 228 192 180 0
-186 144 192 180 0
-181 -223 -139 -187 0
-181 -223 -139 -175 0
-181 -223 -187 -175 0
-181 -139 -187 -175 0
-182 -224 -140 -188 0
-182 -224 -140 -176 0
-182 -224 -188 -176 0
-182 -140 -188 -176 0
-183 -225 -141 -189 0
-183 -225 -141 -177 0
-183 -225 -189 -177 0
-183 -141 -189 -177 0
-184 -226 -142 -190 0
-184 -226 -142 -178 0
-184 -226 -190 -178 0
-184 -142 -190 -178 0
-185 -227 -143 -191 0
-185 -227 -143 -179 0
-185 -227 -191 -179 0
-185 -143 -191 -179 0
-186 -228 -144 -192 0
-186 -228 -144 -180 0
-186 -228 -192 -180 0
-186 -144 -192 -180 0
187 188 189 190 191 192 0
-187 -188 0
-187 -189 0
-187 -190 0
-187 -191 0
-187 -192 0
-188 -189 0
-188 -190 0
-188 -191 0
-188 -192 0
-189 -190 0
-189 -191 0
-189 -192 0
-190 -191 0
-190 -192 0
-191 -192 0
-187 229 145 193 0
-187 229 145 181 0
-187 229 193 181 0
-187 145 193 181 0
-188 230 146 194 0
-188 230 146 182 0
-188 230 194 182 0
-188 146 194 182 0
-189 231 147 195 0
-189 231 147 183 0
-189 231 195 183 0
-189 147 195 183 0
-190 232 148 196 0
-190 232 148 184 0
-190 232 196 184 0
-190 148 196 184 0
-191 233 149 197 0
-191 233 149 185 0
-191 233 197 185 0
-191 149 197 185 0
-192 234 150 198 0
-192 234 150 186 0
-192 234 198 186 0
-192 150 198 186 0
-187 -229 -145 -193 0
-187 -229 -145 -181 0
-187 -229 -193 -181 0
-187 -145 -193 -181 0
-188 -230 -146 -194 0
-188 -230 -146 -182 0
-188 -230 -194 -182 0
-188 -146 -194 -182 0
-189 -231 -147 -195 0
-189 -231 -147 -183 0
-189 -231 -195 -183 0
-189 -147 -195 -183 0
-190 -232 -148 -196 0
-190 -232 -148 -184 0
-190 -232 -196 -184 0
-190 -148 -196 -184 0
-191 -233 -149 -197 0
-191 -233 -149 -185 0
-191 -233 -197 -185 0
-191 -149 -197 -185 0
-192 -234 -150 -198 0
-192 -234 -150 -186 0
-192 -234 -198 -186 0
-192 -150 -198 -186 0
197 0
-193 0
-194 0
-195 0
-196 0
-198 0
239 155 203 191 0
-239 -155 0
-239 -203 0
-239 -191 0
-155 -203 0
-155 -191 0
-203 -191 0
199 200 201 202 203 204 0
-199 -200 0
-199 -201 0
-199 -202 0
-199 -203 0
-199 -204 0
-200 -201 0
-200 -202 0
-200 -203 0
-200 -204 0
-201 -202 0
-201 -203 0
-201 -204 0
-202 -203 0
-202 -204 0
-203 -204 0
-199 241 157 205 0
-199 241 157 193 0
-199 241 205 193 0
-199 157 205 193 0
-200 242 158 206 0
-200 242 158 194 0
-200 242 206 194 0
-200 158 206 194 0
-201 243 159 207 0
-201 243 159 195 0
-201 243 207 195 0
-201 159 207 195 0
-202 244 160 208 0
-202 244 160 196 0
-202 244 208 196 0
-202 160 208 196 0
-203 245 161 209 0
-203 245 161 197 0
-203 245 209 197 0
-203 161 209 197 0
-204 246 162 210 0
-204 246 162 198 0
-204 246 210 198 0
-204 162 210 198 0
-199 -241 -157 -205 0
-199 -241 -157 -193 0
-199 -241 -205 -193 0
-199 -157 -205 -193 0
-200 -242 -158 -206 0
-200 -242 -158 -194 0
-200 -242 -206 -194 0
-200 -158 -206 -194 0
-201 -243 -159 -207 0
-201 -243 -159 -195 0
-201 -243 -207 -195 0
-201 -159 -207 -195 0
-202 -244 -160 -208 0
-202 -244 -160 -196 0
-202 -244 -208 -196 0
-202 -160 -208 -196 0
-203 -245 -161 -209 0
-203 -245 -161 -197 0
-203 -245 -209 -197 0
-203 -161 -209 -197 0
-204 -246 -162 -210 0
-204 -246 -162 -198 0
-204 -246 -210 -198 0
-204 -162 -210 -198 0
205 206 207 208 209 210 0
-205 -206 0
-205 -207 0
-205 -208 0
-205 -209 0
-205 -210 0
-206 -207 0
-206 -208 0
-206 -209 0
-206 -210 0
-207 -208 0
-207 -209 0
-207 -210 0
-208 -209 0
-208 -210 0
-209 -210 0
-205 247 163 0
-205 247 199 0
-205 163 199 0
-206 248 164 0
-206 248 200 0
-206 164 200 0
-207 249 165 0
-207 249 201 0
-207 165 201 0
-208 250 166 0
-208 250 202 0
-208 166 202 0
-209 251 167 0
-209 251 203 0
-209 167 203 0
-210 252 168 0
-210 252 204 0
-210 168 204 0
-205 -247 -163 -199 0
-206 -248 -164 -200 0
-207 -249 -165 -201 0
-208 -250 -166 -202 0
-209 -251 -167 -203 0
-210 -252 -168 -204 0
211 212 213 214 215 216 0
-211 -212 0
-211 -213 0
-211 -214 0
-211 -215 0
-211 -216 0
-212 -213 0
-212 -214 0
-212 -215 0
-212 -216 0
-213 -214 0
-213 -215 0
-213 -216 0
-214 -215 0
-214 -216 0
-215 -216 0
-211 253 169 0
-211 253 217 0
-211 169 217 0
-212 254 170 0
-212 254 218 0
-212 170 218 0
-213 255 171 0
-213 255 219 0
-213 171 219 0
-214 256 172 0
-214 256 220 0
-214 172 220 0
-215 257 173 0
-215 257 221 0
-215 173 221 0
-216 258 174 0
-216 258 222 0
-216 174 222 0
-211 -253 -169 -217 0
-212 -254 -170 -218 0
-213 -255 -171 -219 0
-214 -256 -172 -220 0
-215 -257 -173 -221 0
-216 -258 -174 -222 0
217 218 219 220 221 222 0
-217 -218 0
-217 -219 0
-217 -220 0
-217 -221 0
-217 -222 0
-218 -219 0
-218 -220 0
-218 -221 0
-218 -222 0
-219 -220 0
-219 -221 0
-219 -222 0
-220 -221 0
-220 -222 0
-221 -222 0
-217 259 175 223 0
-217 259 175 211 0
-217 259 223 211 0
-217 175 223 211 0
-218 260 176 224 0
-218 260 176 212 0
-218 260 224 212 0
-218 176 224 212 0
-219 261 177 225 0
-219 261 177 213 0
-219 261 225 213 0
-219 177 225 213 0
-220 262 178 226 0
-220 262 178 214 0
-220 262 226 214 0
-220 178 226 214 0
-221 263 179 227 0
-221 263 179 215 0
-221 263 227 215 0
-221 179 227 215 0
-222 264 180 228 0
-222 264 180 216 0
-222 264 228 216 0
-222 180 228 216 0
-217 -259 -175 -223 0
-217 -259 -175 -211 0
-217 -259 -223 -211 0
-217 -175 -223 -211 0
-218 -260 -176 -224 0
-218 -260 -176 -212 0
-218 -260 -224 -212 0
-218 -176 -224 -212 0
-219 -261 -177 -225 0
-219 -261 -177 -213 0
-219 -261 -225 -213 0
-219 -177 -225 -213 0
-220 -262 -178 -226 0
-220 -262 -178 -214 0
-220 -262 -226 -214 0
-220 -178 -226 -214 0
-221 -263 -179 -227 0
-221 -263 -179 -215 0
-221 -263 -227 -215 0
-221 -179 -227 -215 0
-222 -264 -180 -228 0
-222 -264 -180 -216 0
-222 -264 -228 -216 0
-222 -180 -228 -216 0
224 0
-223 0
-225 0
-226 0
-227 0
-228 0
266 182 230 218 0
-266 -182 0
-266 -230 0
-266 -218 0
-182 -230 0
-182 -218 0
-230 -218 0
234 0
-229 0
-230 0
-231 0
-232 0
-233 0
276 192 240 228 0
-276 -192 0
-276 -240 0
-276 -228 0
-192 -240 0
-192 -228 0
-240 -228 0
237 0
-235 0
-236 0
-238 0
-239 0
-240 0
279 195 243 231 0
-279 -195 0
-279 -243 0
-279 -231 0
-195 -243 0
-195 -231 0
-243 -231 0
244 0
-241 0
-242 0
-243 0
-245 0
-246 0
286 202 250 238 0
-286 -202 0
-286 -250 0
-286 -238 0
-202 -250 0
-202 -238 0
-250 -238 0
251 0
-247 0
-248 0
-249 0
-250 0
-252 0
293 209 245 0
-293 -209 0
-293 -245 0
-209 -245 0
253 0
-254 0
-255 0
-256 0
-257 0
-258 0
211 259 0
-211 -259 0
259 260 261 262 263 264 0
-259 -260 0
-259 -261 0
-259 -262 0
-259 -263 0
-259 -264 0
-260 -261 0
-260 -262 0
-260 -263 0
-260 -264 0
-261 -262 0
-261 -263 0
-261 -264 0
-262 -263 0
-262 -264 0
-263 -264 0
-259 253 217 0
-259 217 265 0
-259 253 265 0
-260 254 218 0
-260 218 266 0
-260 254 266 0
-261 255 219 0
-261 219 267 0
-261 255 267 0
-262 256 220 0
-262 220 268 0
-262 256 268 0
-263 257 221 0
-263 221 269 0
-263 257 269 0
-264 258 222 0
-264 222 270 0
-264 258 270 0
-259 -217 -253 -265 0
-260 -218 -254 -266 0
-261 -219 -255 -267 0
-262 -220 -256 -268 0
-263 -221 -257 -269 0
-264 -222 -258 -270 0
265 266 267 268 269 270 0
-265 -266 0
-265 -267 0
-265 -268 0
-265 -269 0
-265 -270 0
-266 -267 0
-266 -268 0
-266 -269 0
-266 -270 0
-267 -268 0
-267 -269 0
-267 -270 0
-268 -269 0
-268 -270 0
-269 -270 0
-265 259 223 0
-265 223 271 0
-265 259 271 0
-266 260 224 0
-266 224 272 0
-266 260 272 0
-267 261 225 0
-267 225 273 0
-267 261 273 0
-268 262 226 0
-268 226 274 0
-268 262 274 0
-269 263 227 0
-269 227 275 0
-269 263 275 0
-270 264 228 0
-270 228 276 0
-270 264 276 0
-265 -223 -259 -271 0
-266 -224 -260 -272 0
-267 -225 -261 -273 0
-268 -226 -262 -274 0
-269 -227 -263 -275 0
-270 -228 -264 -276 0
271 272 273 274 275 276 0
-271 -272 0
-271 -273 0
-271 -274 0
-271 -275 0
-271 -276 0
-272 -273 0
-272 -274 0
-272 -275 0
-272 -276 0
-273 -274 0
-273 -275 0
-273 -276 0
-274 -275 0
-274 -276 0
-275 -276 0
-271 265 229 0
-271 229 277 0
-271 265 277 0
-272 266 230 0
-272 230 278 0
-272 266 278 0
-273 267 231 0
-273 231 279 0
-273 267 279 0
-274 268 232 0
-274 232 280 0
-274 268 280 0
-275 269 233 0
-275 233 281 0
-275 269 281 0
-276 270 234 0
-276 234 282 0
-276 270 282 0
-271 -229 -265 -277 0
-272 -230 -266 -278 0
-273 -231 -267 -279 0
-274 -232 -268 -280 0
-275 -233 -269 -281 0
-276 -234 -270 -282 0
277 278 279 280 281 282 0
-277 -278 0
-277 -279 0
-277 -280 0
-277 -281 0
-277 -282 0
-278 -279 0
-278 -280 0
-278 -281 0
-278 -282 0
-279 -280 0
-279 -281 0
-279 -282 0
-280 -281 0
-280 -282 0
-281 -282 0
-277 271 235 0
-277 235 283 0
-277 271 283 0
-278 272 236 0
-278 236 284 0
-278 272 284 0
-279 273 237 0
-279 237 285 0
-279 273 285 0
-280 274 238 0
-280 238 286 0
-280 274 286 0
-281 275 239 0
-281 239 287 0
-281 275 287 0
-282 276 240 0
-282 240 288 0
-282 276 288 0
-277 -235 -271 -283 0
-278 -236 -272 -284 0
-279 -237 -273 -285 0
-280 -238 -274 -286 0
-281 -239 -275 -287 0
-282 -240 -276 -288 0
283 284 285 286 287 288 0
-283 -284 0
-283 -285 0
-283 -286 0
-283 -287 0
-283 -288 0
-284 -285 0
-284 -286 0
-284 -287 0
-284 -288 0
-285 -286 0
-285 -287 0
-285 -288 0
-286 -287 0
-286 -288 0
-287 -288 0
-283 277 241 0
-283 241 289 0
-283 277 289 0
-284 278 242 0
-284 242 290 0
-284 278 290 0
-285 279 243 0
-285 243 291 0
-285 279 291 0
-286 280 244 0
-286 244 292 0
-286 280 292 0
-287 281 245 0
-287 245 293 0
-287 281 293 0
-288 282 246 0
-288 246 294 0
-288 282 294 0
-283 -241 -277 -289 0
-284 -242 -278 -290 0
-285 -243 -279 -291 0
-286 -244 -280 -292 0
-287 -245 -281 -293 0
-288 -246 -282 -294 0
292 0
-289 0
-290 0
-291 0
-293 0
-294 0
250 286 0
-250 -286 0
169 175 181 187 199 205 0
211 217 0
7 49 91 133 175 217 259 0
13 55 97 139 181 265 0
19 61 103 145 187 271 0
25 67 277 0
128 134 140 146 164 0
170 176 182 188 200 206 0
20 62 104 146 188 272 0
129 135 141 147 165 0
171 177 183 189 201 207 0
35 77 203 287 0
174 180 186 192 204 210 0